Reading model...
...model read.
creating competitive generators file...
...competitive generators recorded.
Loading data...
.. real-time data read.
Compiling instance...
...instance created.
Creating Offer Mitigation (model will solve as dispatch if TRUE)...
...storage offer mitigation file created
Converting model to MPEC...
...converted
NOTE: initial MIP solve with only storage competitive to get feasible solution
Solving...

Welcome to IBM(R) ILOG(R) CPLEX(R) Interactive Optimizer 12.10.0.0
  with Simplex, Mixed Integer & Barrier Optimizers
5725-A06 5725-A29 5724-Y48 5724-Y49 5724-Y54 5724-Y55 5655-Y21
Copyright IBM Corp. 1988, 2019.  All Rights Reserved.

Type 'help' for a list of available commands.
Type 'help' followed by a command name for more
information on commands.

CPLEX> Logfile 'cplex.log' closed.
Logfile 'C:\Users\wenmi\Desktop\competitiveMPEC\logs\tmpdqz7qrg2.cplex.log' open.
CPLEX> New value for parallel optimization mode: -1
CPLEX> New value for mixed integer optimality gap tolerance: 0.01
CPLEX> New value for feasibility tolerance: 1e-09
CPLEX> New value for deterministic time limit in ticks: 50000
CPLEX> Problem 'C:\Users\wenmi\Desktop\competitiveMPEC\logs\tmpmcxgpu79.pyomo.lp' read.
Read time = 0.34 sec. (27.74 ticks)
CPLEX> Problem name         : C:\Users\wenmi\Desktop\competitiveMPEC\logs\tmpmcxgpu79.pyomo.lp
Objective sense      : Maximize
Variables            :  107781  [Nneg: 1,  Box: 44056,  Free: 8928,
                                 Binary: 54796]
Objective nonzeros   :   19009
Linear constraints   :  246901  [Less: 82866,  Greater: 118424,  Equal: 45611]
  Nonzeros           :  591869
  RHS nonzeros       :  136226

Variables            : Min LB: -5000.000        Max UB: 1000000.       
Objective nonzeros   : Min   : 0.02500000       Max   : 208.3333       
Linear constraints   :
  Nonzeros           : Min   : 0.02500000       Max   : 1000000.       
  RHS nonzeros       : Min   : 0.02500000       Max   : 1000000.       
CPLEX> Version identifier: 12.10.0.0 | 2019-11-26 | 843d4de2ae
CPXPARAM_Parallel                                -1
CPXPARAM_Simplex_Tolerances_Feasibility          1.0000000000000001e-09
CPXPARAM_DetTimeLimit                            50000
CPXPARAM_MIP_Tolerances_MIPGap                   0.01
Tried aggregator 3 times.
MIP Presolve eliminated 173065 rows and 34129 columns.
MIP Presolve added 7711 rows and 0 columns.
MIP Presolve modified 52061 coefficients.
Aggregator did 26024 substitutions.
Reduced MIP has 55523 rows, 47244 columns, and 159177 nonzeros.
Reduced MIP has 18730 binaries, 0 generals, 0 SOSs, and 0 indicators.
Presolve time = 0.39 sec. (336.81 ticks)
Probing fixed 714 vars, tightened 11110 bounds.
Probing time = 0.11 sec. (21.77 ticks)
Tried aggregator 2 times.
Detecting symmetries...
MIP Presolve eliminated 1619 rows and 1441 columns.
MIP Presolve modified 7068 coefficients.
Aggregator did 96 substitutions.
Reduced MIP has 53808 rows, 45707 columns, and 154095 nonzeros.
Reduced MIP has 18014 binaries, 0 generals, 0 SOSs, and 0 indicators.
Presolve time = 0.22 sec. (269.87 ticks)
Probing fixed 0 vars, tightened 510 bounds.
Probing time = 0.28 sec. (27.65 ticks)
Clique table members: 96994.
MIP emphasis: balance optimality and feasibility.
MIP search method: dynamic search.
Parallel mode: opportunistic, using up to 16 threads.
Root relaxation solution time = 0.86 sec. (650.70 ticks)

        Nodes                                         Cuts/
   Node  Left     Objective  IInf  Best Integer    Best Bound    ItCnt     Gap

      0     0     -363.5747   276                   -363.5747       32         
*     0+    0                         -363.5747     -363.5747             0.00%
      0     0        cutoff           -363.5747     -363.5747       32    0.00%
Elapsed time = 3.67 sec. (3892.83 ticks, tree = 0.01 MB, solutions = 1)

Root node processing (before b&c):
  Real time             =    3.69 sec. (3896.59 ticks)
Parallel b&c, 16 threads:
  Real time             =    0.00 sec. (0.00 ticks)
  Sync time (average)   =    0.00 sec.
  Wait time (average)   =    0.00 sec.
                          ------------
Total (root+branch&cut) =    3.69 sec. (3896.59 ticks)

Solution pool: 1 solution saved.

MIP - Integer optimal solution:  Objective = -3.6357466961e+02
Solution time =    3.69 sec.  Iterations = 32  Nodes = 0
Deterministic time = 3896.90 ticks  (1056.64 ticks/sec)

CPLEX> Incumbent solution written to file 'C:\Users\wenmi\Desktop\competitiveMPEC\logs\tmpbjlnh08t.cplex.sol'.
CPLEX> NOTE: no warmstart specified for MIP iteration, default behavior is true
NOTE: resolving with all competitive generators using storage-only solution to warmstart
Solving...

Welcome to IBM(R) ILOG(R) CPLEX(R) Interactive Optimizer 12.10.0.0
  with Simplex, Mixed Integer & Barrier Optimizers
5725-A06 5725-A29 5724-Y48 5724-Y49 5724-Y54 5724-Y55 5655-Y21
Copyright IBM Corp. 1988, 2019.  All Rights Reserved.

Type 'help' for a list of available commands.
Type 'help' followed by a command name for more
information on commands.

CPLEX> Logfile 'cplex.log' closed.
Logfile 'C:\Users\wenmi\Desktop\competitiveMPEC\logs\tmpamgty1st.cplex.log' open.
CPLEX> New value for parallel optimization mode: -1
CPLEX> New value for mixed integer optimality gap tolerance: 0.01
CPLEX> New value for feasibility tolerance: 1e-09
CPLEX> New value for deterministic time limit in ticks: 50000
CPLEX> Problem 'C:\Users\wenmi\Desktop\competitiveMPEC\logs\tmp54a1lljd.pyomo.lp' read.
Read time = 0.36 sec. (27.78 ticks)
CPLEX> MIP start file 'C:\Users\wenmi\Desktop\competitiveMPEC\logs\tmp725a1jte.cplex.mst' read.
CPLEX> Problem name         : C:\Users\wenmi\Desktop\competitiveMPEC\logs\tmp54a1lljd.pyomo.lp
Objective sense      : Maximize
Variables            :  109221  [Nneg: 1,  Box: 45496,  Free: 8928,
                                 Binary: 54796]
Objective nonzeros   :   20401
Linear constraints   :  246901  [Less: 82866,  Greater: 118424,  Equal: 45611]
  Nonzeros           :  591869
  RHS nonzeros       :  136226

Variables            : Min LB: -5000.000        Max UB: 1000000.       
Objective nonzeros   : Min   : 0.02500000       Max   : 208.3333       
Linear constraints   :
  Nonzeros           : Min   : 0.02500000       Max   : 1000000.       
  RHS nonzeros       : Min   : 0.02500000       Max   : 1000000.       
CPLEX> Version identifier: 12.10.0.0 | 2019-11-26 | 843d4de2ae
CPXPARAM_Parallel                                -1
CPXPARAM_Simplex_Tolerances_Feasibility          1.0000000000000001e-09
CPXPARAM_DetTimeLimit                            50000
CPXPARAM_MIP_Tolerances_MIPGap                   0.01
1 of 1 MIP starts provided solutions.
MIP start 'm1' defined initial solution with objective 8206.0492.
Tried aggregator 3 times.
MIP Presolve eliminated 173065 rows and 35569 columns.
MIP Presolve added 7711 rows and 0 columns.
MIP Presolve modified 52061 coefficients.
Aggregator did 26024 substitutions.
Reduced MIP has 55523 rows, 47244 columns, and 159177 nonzeros.
Reduced MIP has 18730 binaries, 0 generals, 0 SOSs, and 0 indicators.
Presolve time = 0.38 sec. (337.54 ticks)
Probing fixed 714 vars, tightened 11110 bounds.
Probing time = 0.11 sec. (21.77 ticks)
Tried aggregator 2 times.
Detecting symmetries...
MIP Presolve eliminated 1619 rows and 1441 columns.
MIP Presolve modified 7068 coefficients.
Aggregator did 96 substitutions.
Reduced MIP has 53808 rows, 45707 columns, and 154095 nonzeros.
Reduced MIP has 18014 binaries, 0 generals, 0 SOSs, and 0 indicators.
Presolve time = 0.20 sec. (269.89 ticks)
Probing fixed 0 vars, tightened 485 bounds.
Probing time = 0.22 sec. (24.75 ticks)
Clique table members: 97057.
MIP emphasis: balance optimality and feasibility.
MIP search method: dynamic search.
Parallel mode: opportunistic, using up to 16 threads.
Root relaxation solution time = 0.80 sec. (678.09 ticks)

        Nodes                                         Cuts/
   Node  Left     Objective  IInf  Best Integer    Best Bound    ItCnt     Gap

*     0+    0                         8206.0492   1.34127e+07              --- 
      0     0     8602.0414   425     8206.0492     8602.0414       45    4.83%
      0     0     8597.3191   425     8206.0492     Cuts: 520      302    4.77%
      0     0     8591.3626   425     8206.0492     Cuts: 156      417    4.70%
      0     0     8582.4289   425     8206.0492     Cuts: 200      499    4.59%
      0     0     8574.3056   425     8206.0492     Cuts: 111      553    4.49%
      0     0     8572.9173   425     8206.0492      Cuts: 49      575    4.47%
      0     0     8572.4662   425     8206.0492      Cuts: 11      588    4.47%
      0     0     8569.0236   425     8206.0492      Cuts: 57      615    4.42%
      0     0     8566.4673   425     8206.0492      Cuts: 36      650    4.39%
      0     0     8565.9887   425     8206.0492      Cuts: 27      659    4.39%
      0     8        cutoff           8206.0492     8565.8241      832    4.38%
Elapsed time = 7.84 sec. (6014.57 ticks, tree = 0.02 MB, solutions = 1)
     27     4     8539.7848    98     8206.0492     8564.0650      703    4.36%
    139    35     8296.9147    62     8206.0492     8564.0650     1235    4.36%
    272    48     8399.0343    49     8206.0492     8564.0650     1378    4.36%
    411    90     8381.0328    41     8206.0492     8564.0650     1744    4.36%
    566   284     8417.6159    66     8206.0492     8564.0650     4502    4.36%
    716   165     8359.5338    84     8206.0492     8564.0650     3020    4.36%
    890   263     8373.9640    44     8206.0492     8564.0650     4285    4.36%
   1038   783     8405.5651    41     8206.0492     8564.0650    10733    4.36%
   1215   460     8507.2898    68     8206.0492     8564.0650     6107    4.36%
   1912   699     8461.1109    63     8206.0492     8564.0650     9641    4.36%
Elapsed time = 33.14 sec. (9131.78 ticks, tree = 9.30 MB, solutions = 1)
   2573  1303     8301.1376    49     8338.9134     8564.0650    16077    2.70%
   3242  1442     8346.8931    51     8338.9134     8557.9455    17347    2.63%
   3876  1763     8361.3571    14     8338.9134     8557.8555    20114    2.63%
   4564  1743     8421.0292    59     8338.9134     8557.8555    25721    2.63%
   5170  1765     8391.8493    25     8338.9134     8554.2070    26832    2.58%
   5536  2148     8470.2507    49     8338.9134     8554.2070    29875    2.58%

Performing restart 1

Repeating presolve.
Tried aggregator 3 times.
MIP Presolve eliminated 10115 rows and 8063 columns.
MIP Presolve modified 90240 coefficients.
Aggregator did 394 substitutions.
Reduced MIP has 43298 rows, 37250 columns, and 118864 nonzeros.
Reduced MIP has 14527 binaries, 0 generals, 0 SOSs, and 0 indicators.
Presolve time = 0.23 sec. (206.12 ticks)
Tried aggregator 2 times.
MIP Presolve eliminated 2325 rows and 2122 columns.
MIP Presolve modified 23690 coefficients.
Aggregator did 4 substitutions.
Reduced MIP has 40969 rows, 35124 columns, and 112520 nonzeros.
Reduced MIP has 13634 binaries, 0 generals, 0 SOSs, and 0 indicators.
Presolve time = 0.09 sec. (81.30 ticks)
Tried aggregator 1 time.
MIP Presolve eliminated 629 rows and 624 columns.
MIP Presolve modified 16318 coefficients.
Reduced MIP has 40340 rows, 34500 columns, and 110868 nonzeros.
Reduced MIP has 13398 binaries, 0 generals, 0 SOSs, and 0 indicators.
Presolve time = 0.11 sec. (97.36 ticks)
Represolve time = 1.47 sec. (751.61 ticks)
   5602     0     8562.3550   698     8338.9134     Cuts: 340    50517    2.58%
   5602     0     8560.5836   698     8338.9134     Cuts: 138    50638    2.58%
   5602     0     8559.5375   698     8338.9134     Cuts: 183    50742    2.58%
   5602     0     8556.5533   698     8338.9134     Cuts: 224    50866    2.58%
   5602     0     8553.0225   698     8338.9134     Cuts: 187    50994    2.57%
   5602     0     8549.6933   698     8338.9134     Cuts: 242    51111    2.53%
   5602     0     8547.9167   698     8338.9134     Cuts: 252    51244    2.51%
   5602     0     8545.2903   698     8338.9134     Cuts: 305    51411    2.47%
   5602     0     8542.0030   698     8338.9134     Cuts: 453    51605    2.44%
   5602     0     8540.8439   698     8338.9134     Cuts: 374    51805    2.41%
   5602     0     8536.4240   698     8338.9134     Cuts: 544    52064    2.37%
   5602     0     8534.5422   698     8338.9134     Cuts: 576    52288    2.35%
   5602     0     8532.9861   698     8338.9134     Cuts: 283    52453    2.33%
   5602     0     8532.5859   698     8338.9134     Cuts: 360    52557    2.32%
   5602     0     8532.1189   698     8338.9134     Cuts: 144    52722    2.32%
   5602     0     8530.9774   698     8338.9134     Cuts: 295    52862    2.30%
   5602     0     8529.8039   698     8338.9134     Cuts: 311    52973    2.29%
   5602     0     8529.7644   698     8338.9134     Cuts: 168    53051    2.29%
   5602     0     8529.6474   698     8338.9134     Cuts: 190    53137    2.29%
   5602     0     8529.5872   698     8338.9134     Cuts: 168    53253    2.29%
   5602     0     8529.4153   698     8338.9134     Cuts: 269    53367    2.28%

GUB cover cuts applied:  27
Clique cuts applied:  44
Cover cuts applied:  42
Implied bound cuts applied:  90
Flow cuts applied:  150
Mixed integer rounding cuts applied:  146
Zero-half cuts applied:  1
Lift and project cuts applied:  107
Gomory fractional cuts applied:  38

Root node processing (before b&c):
  Real time             =    6.52 sec. (5976.83 ticks)
Parallel b&c, 16 threads:
  Real time             =   73.47 sec. (44042.07 ticks)
  Sync time (average)   =    0.47 sec.
  Wait time (average)   =    0.00 sec.
                          ------------
Total (root+branch&cut) =   79.98 sec. (50018.91 ticks)

Solution pool: 3 solutions saved.

MIP - Deterministic time limit exceeded, integer feasible:  Objective =  8.3389134364e+03
Current MIP best bound =  8.5294152813e+03 (gap = 190.502, 2.28%)
Solution time =   80.02 sec.  Iterations = 53367  Nodes = 5602 (1)
Deterministic time = 50019.22 ticks  (625.12 ticks/sec)

CPLEX> Incumbent solution written to file 'C:\Users\wenmi\Desktop\competitiveMPEC\logs\tmp0z3zal3y.cplex.sol'.
CPLEX> Exporting results... 
